language ESSENCE' 1.0
letting initGrid be [
    [1, 1, 1, 1, 1],
[2, 2, 3, 3, 3],
[4, 5, 4, 1, 2],
[3, 3, 5, 1, 3],
[2, 5, 5, 1, 4],
[1, 1, 3, 1, 3]
    ]
letting goalBlocksRemaining be 5
letting noSteps be 23
